c description: Graph 4-Colorability of graph: 
c generator: CNFgen (0.9.0)
c copyright: (C) 2012-2020 Massimo Lauria <massimo.lauria@uniroma1.it>
c url: https://massimolauria.net/cnfgen
c
p cnf 200 750
1 2 3 4 0
-1 -2 0
-1 -3 0
-1 -4 0
-2 -3 0
-2 -4 0
-3 -4 0
5 6 7 8 0
-5 -6 0
-5 -7 0
-5 -8 0
-6 -7 0
-6 -8 0
-7 -8 0
9 10 11 12 0
-9 -10 0
-9 -11 0
-9 -12 0
-10 -11 0
-10 -12 0
-11 -12 0
13 14 15 16 0
-13 -14 0
-13 -15 0
-13 -16 0
-14 -15 0
-14 -16 0
-15 -16 0
17 18 19 20 0
-17 -18 0
-17 -19 0
-17 -20 0
-18 -19 0
-18 -20 0
-19 -20 0
21 22 23 24 0
-21 -22 0
-21 -23 0
-21 -24 0
-22 -23 0
-22 -24 0
-23 -24 0
25 26 27 28 0
-25 -26 0
-25 -27 0
-25 -28 0
-26 -27 0
-26 -28 0
-27 -28 0
29 30 31 32 0
-29 -30 0
-29 -31 0
-29 -32 0
-30 -31 0
-30 -32 0
-31 -32 0
33 34 35 36 0
-33 -34 0
-33 -35 0
-33 -36 0
-34 -35 0
-34 -36 0
-35 -36 0
37 38 39 40 0
-37 -38 0
-37 -39 0
-37 -40 0
-38 -39 0
-38 -40 0
-39 -40 0
41 42 43 44 0
-41 -42 0
-41 -43 0
-41 -44 0
-42 -43 0
-42 -44 0
-43 -44 0
45 46 47 48 0
-45 -46 0
-45 -47 0
-45 -48 0
-46 -47 0
-46 -48 0
-47 -48 0
49 50 51 52 0
-49 -50 0
-49 -51 0
-49 -52 0
-50 -51 0
-50 -52 0
-51 -52 0
53 54 55 56 0
-53 -54 0
-53 -55 0
-53 -56 0
-54 -55 0
-54 -56 0
-55 -56 0
57 58 59 60 0
-57 -58 0
-57 -59 0
-57 -60 0
-58 -59 0
-58 -60 0
-59 -60 0
61 62 63 64 0
-61 -62 0
-61 -63 0
-61 -64 0
-62 -63 0
-62 -64 0
-63 -64 0
65 66 67 68 0
-65 -66 0
-65 -67 0
-65 -68 0
-66 -67 0
-66 -68 0
-67 -68 0
69 70 71 72 0
-69 -70 0
-69 -71 0
-69 -72 0
-70 -71 0
-70 -72 0
-71 -72 0
73 74 75 76 0
-73 -74 0
-73 -75 0
-73 -76 0
-74 -75 0
-74 -76 0
-75 -76 0
77 78 79 80 0
-77 -78 0
-77 -79 0
-77 -80 0
-78 -79 0
-78 -80 0
-79 -80 0
81 82 83 84 0
-81 -82 0
-81 -83 0
-81 -84 0
-82 -83 0
-82 -84 0
-83 -84 0
85 86 87 88 0
-85 -86 0
-85 -87 0
-85 -88 0
-86 -87 0
-86 -88 0
-87 -88 0
89 90 91 92 0
-89 -90 0
-89 -91 0
-89 -92 0
-90 -91 0
-90 -92 0
-91 -92 0
93 94 95 96 0
-93 -94 0
-93 -95 0
-93 -96 0
-94 -95 0
-94 -96 0
-95 -96 0
97 98 99 100 0
-97 -98 0
-97 -99 0
-97 -100 0
-98 -99 0
-98 -100 0
-99 -100 0
101 102 103 104 0
-101 -102 0
-101 -103 0
-101 -104 0
-102 -103 0
-102 -104 0
-103 -104 0
105 106 107 108 0
-105 -106 0
-105 -107 0
-105 -108 0
-106 -107 0
-106 -108 0
-107 -108 0
109 110 111 112 0
-109 -110 0
-109 -111 0
-109 -112 0
-110 -111 0
-110 -112 0
-111 -112 0
113 114 115 116 0
-113 -114 0
-113 -115 0
-113 -116 0
-114 -115 0
-114 -116 0
-115 -116 0
117 118 119 120 0
-117 -118 0
-117 -119 0
-117 -120 0
-118 -119 0
-118 -120 0
-119 -120 0
121 122 123 124 0
-121 -122 0
-121 -123 0
-121 -124 0
-122 -123 0
-122 -124 0
-123 -124 0
125 126 127 128 0
-125 -126 0
-125 -127 0
-125 -128 0
-126 -127 0
-126 -128 0
-127 -128 0
129 130 131 132 0
-129 -130 0
-129 -131 0
-129 -132 0
-130 -131 0
-130 -132 0
-131 -132 0
133 134 135 136 0
-133 -134 0
-133 -135 0
-133 -136 0
-134 -135 0
-134 -136 0
-135 -136 0
137 138 139 140 0
-137 -138 0
-137 -139 0
-137 -140 0
-138 -139 0
-138 -140 0
-139 -140 0
141 142 143 144 0
-141 -142 0
-141 -143 0
-141 -144 0
-142 -143 0
-142 -144 0
-143 -144 0
145 146 147 148 0
-145 -146 0
-145 -147 0
-145 -148 0
-146 -147 0
-146 -148 0
-147 -148 0
149 150 151 152 0
-149 -150 0
-149 -151 0
-149 -152 0
-150 -151 0
-150 -152 0
-151 -152 0
153 154 155 156 0
-153 -154 0
-153 -155 0
-153 -156 0
-154 -155 0
-154 -156 0
-155 -156 0
157 158 159 160 0
-157 -158 0
-157 -159 0
-157 -160 0
-158 -159 0
-158 -160 0
-159 -160 0
161 162 163 164 0
-161 -162 0
-161 -163 0
-161 -164 0
-162 -163 0
-162 -164 0
-163 -164 0
165 166 167 168 0
-165 -166 0
-165 -167 0
-165 -168 0
-166 -167 0
-166 -168 0
-167 -168 0
169 170 171 172 0
-169 -170 0
-169 -171 0
-169 -172 0
-170 -171 0
-170 -172 0
-171 -172 0
173 174 175 176 0
-173 -174 0
-173 -175 0
-173 -176 0
-174 -175 0
-174 -176 0
-175 -176 0
177 178 179 180 0
-177 -178 0
-177 -179 0
-177 -180 0
-178 -179 0
-178 -180 0
-179 -180 0
181 182 183 184 0
-181 -182 0
-181 -183 0
-181 -184 0
-182 -183 0
-182 -184 0
-183 -184 0
185 186 187 188 0
-185 -186 0
-185 -187 0
-185 -188 0
-186 -187 0
-186 -188 0
-187 -188 0
189 190 191 192 0
-189 -190 0
-189 -191 0
-189 -192 0
-190 -191 0
-190 -192 0
-191 -192 0
193 194 195 196 0
-193 -194 0
-193 -195 0
-193 -196 0
-194 -195 0
-194 -196 0
-195 -196 0
197 198 199 200 0
-197 -198 0
-197 -199 0
-197 -200 0
-198 -199 0
-198 -200 0
-199 -200 0
-1 -41 0
-2 -42 0
-3 -43 0
-4 -44 0
-1 -73 0
-2 -74 0
-3 -75 0
-4 -76 0
-1 -77 0
-2 -78 0
-3 -79 0
-4 -80 0
-1 -81 0
-2 -82 0
-3 -83 0
-4 -84 0
-1 -149 0
-2 -150 0
-3 -151 0
-4 -152 0
-5 -65 0
-6 -66 0
-7 -67 0
-8 -68 0
-5 -113 0
-6 -114 0
-7 -115 0
-8 -116 0
-9 -61 0
-10 -62 0
-11 -63 0
-12 -64 0
-13 -101 0
-14 -102 0
-15 -103 0
-16 -104 0
-13 -165 0
-14 -166 0
-15 -167 0
-16 -168 0
-17 -33 0
-18 -34 0
-19 -35 0
-20 -36 0
-17 -41 0
-18 -42 0
-19 -43 0
-20 -44 0
-17 -65 0
-18 -66 0
-19 -67 0
-20 -68 0
-17 -137 0
-18 -138 0
-19 -139 0
-20 -140 0
-17 -153 0
-18 -154 0
-19 -155 0
-20 -156 0
-17 -197 0
-18 -198 0
-19 -199 0
-20 -200 0
-21 -189 0
-22 -190 0
-23 -191 0
-24 -192 0
-25 -65 0
-26 -66 0
-27 -67 0
-28 -68 0
-25 -77 0
-26 -78 0
-27 -79 0
-28 -80 0
-25 -85 0
-26 -86 0
-27 -87 0
-28 -88 0
-29 -41 0
-30 -42 0
-31 -43 0
-32 -44 0
-29 -77 0
-30 -78 0
-31 -79 0
-32 -80 0
-29 -141 0
-30 -142 0
-31 -143 0
-32 -144 0
-29 -189 0
-30 -190 0
-31 -191 0
-32 -192 0
-29 -193 0
-30 -194 0
-31 -195 0
-32 -196 0
-33 -37 0
-34 -38 0
-35 -39 0
-36 -40 0
-33 -93 0
-34 -94 0
-35 -95 0
-36 -96 0
-37 -45 0
-38 -46 0
-39 -47 0
-40 -48 0
-37 -53 0
-38 -54 0
-39 -55 0
-40 -56 0
-37 -69 0
-38 -70 0
-39 -71 0
-40 -72 0
-37 -141 0
-38 -142 0
-39 -143 0
-40 -144 0
-37 -157 0
-38 -158 0
-39 -159 0
-40 -160 0
-37 -161 0
-38 -162 0
-39 -163 0
-40 -164 0
-37 -173 0
-38 -174 0
-39 -175 0
-40 -176 0
-41 -69 0
-42 -70 0
-43 -71 0
-44 -72 0
-41 -85 0
-42 -86 0
-43 -87 0
-44 -88 0
-41 -89 0
-42 -90 0
-43 -91 0
-44 -92 0
-41 -97 0
-42 -98 0
-43 -99 0
-44 -100 0
-41 -189 0
-42 -190 0
-43 -191 0
-44 -192 0
-45 -93 0
-46 -94 0
-47 -95 0
-48 -96 0
-45 -105 0
-46 -106 0
-47 -107 0
-48 -108 0
-45 -129 0
-46 -130 0
-47 -131 0
-48 -132 0
-45 -149 0
-46 -150 0
-47 -151 0
-48 -152 0
-49 -121 0
-50 -122 0
-51 -123 0
-52 -124 0
-49 -129 0
-50 -130 0
-51 -131 0
-52 -132 0
-49 -157 0
-50 -158 0
-51 -159 0
-52 -160 0
-49 -161 0
-50 -162 0
-51 -163 0
-52 -164 0
-53 -133 0
-54 -134 0
-55 -135 0
-56 -136 0
-53 -157 0
-54 -158 0
-55 -159 0
-56 -160 0
-57 -105 0
-58 -106 0
-59 -107 0
-60 -108 0
-57 -173 0
-58 -174 0
-59 -175 0
-60 -176 0
-61 -101 0
-62 -102 0
-63 -103 0
-64 -104 0
-61 -121 0
-62 -122 0
-63 -123 0
-64 -124 0
-61 -129 0
-62 -130 0
-63 -131 0
-64 -132 0
-61 -173 0
-62 -174 0
-63 -175 0
-64 -176 0
-61 -177 0
-62 -178 0
-63 -179 0
-64 -180 0
-65 -113 0
-66 -114 0
-67 -115 0
-68 -116 0
-65 -129 0
-66 -130 0
-67 -131 0
-68 -132 0
-65 -193 0
-66 -194 0
-67 -195 0
-68 -196 0
-69 -97 0
-70 -98 0
-71 -99 0
-72 -100 0
-69 -161 0
-70 -162 0
-71 -163 0
-72 -164 0
-73 -117 0
-74 -118 0
-75 -119 0
-76 -120 0
-73 -125 0
-74 -126 0
-75 -127 0
-76 -128 0
-73 -145 0
-74 -146 0
-75 -147 0
-76 -148 0
-73 -177 0
-74 -178 0
-75 -179 0
-76 -180 0
-73 -189 0
-74 -190 0
-75 -191 0
-76 -192 0
-77 -97 0
-78 -98 0
-79 -99 0
-80 -100 0
-77 -141 0
-78 -142 0
-79 -143 0
-80 -144 0
-77 -169 0
-78 -170 0
-79 -171 0
-80 -172 0
-77 -177 0
-78 -178 0
-79 -179 0
-80 -180 0
-85 -141 0
-86 -142 0
-87 -143 0
-88 -144 0
-85 -177 0
-86 -178 0
-87 -179 0
-88 -180 0
-89 -121 0
-90 -122 0
-91 -123 0
-92 -124 0
-89 -177 0
-90 -178 0
-91 -179 0
-92 -180 0
-93 -141 0
-94 -142 0
-95 -143 0
-96 -144 0
-93 -153 0
-94 -154 0
-95 -155 0
-96 -156 0
-93 -177 0
-94 -178 0
-95 -179 0
-96 -180 0
-97 -161 0
-98 -162 0
-99 -163 0
-100 -164 0
-101 -177 0
-102 -178 0
-103 -179 0
-104 -180 0
-101 -185 0
-102 -186 0
-103 -187 0
-104 -188 0
-105 -121 0
-106 -122 0
-107 -123 0
-108 -124 0
-105 -145 0
-106 -146 0
-107 -147 0
-108 -148 0
-109 -121 0
-110 -122 0
-111 -123 0
-112 -124 0
-109 -137 0
-110 -138 0
-111 -139 0
-112 -140 0
-109 -185 0
-110 -186 0
-111 -187 0
-112 -188 0
-113 -137 0
-114 -138 0
-115 -139 0
-116 -140 0
-113 -141 0
-114 -142 0
-115 -143 0
-116 -144 0
-113 -173 0
-114 -174 0
-115 -175 0
-116 -176 0
-117 -141 0
-118 -142 0
-119 -143 0
-120 -144 0
-121 -169 0
-122 -170 0
-123 -171 0
-124 -172 0
-125 -157 0
-126 -158 0
-127 -159 0
-128 -160 0
-125 -189 0
-126 -190 0
-127 -191 0
-128 -192 0
-129 -189 0
-130 -190 0
-131 -191 0
-132 -192 0
-133 -169 0
-134 -170 0
-135 -171 0
-136 -172 0
-137 -177 0
-138 -178 0
-139 -179 0
-140 -180 0
-149 -173 0
-150 -174 0
-151 -175 0
-152 -176 0
-153 -193 0
-154 -194 0
-155 -195 0
-156 -196 0
-157 -197 0
-158 -198 0
-159 -199 0
-160 -200 0
-161 -177 0
-162 -178 0
-163 -179 0
-164 -180 0
-161 -189 0
-162 -190 0
-163 -191 0
-164 -192 0